etc/upTests/__issues/207-relation-dense/0002.eprime
language ESSENCE' 1.0

find x_RelationAsSet_SetExplicitVarSizeWithMarker_tuple1: int(0..12)
find x_RelationAsSet_SetExplicitVarSizeWithMarker_tuple2_tuple1:
        matrix indexed by [int(1..12)] of int(1..4)
find x_RelationAsSet_SetExplicitVarSizeWithMarker_tuple2_tuple2:
        matrix indexed by [int(1..12)] of int(1..3)
such that
    exists v__0 : int(1..12)
        . v__0 <= x_RelationAsSet_SetExplicitVarSizeWithMarker_tuple1
          /\
          (x_RelationAsSet_SetExplicitVarSizeWithMarker_tuple2_tuple1[v__0] = 1
           /\
           x_RelationAsSet_SetExplicitVarSizeWithMarker_tuple2_tuple2[v__0] = 1),
    exists v__0 : int(1..12)
        . v__0 <= x_RelationAsSet_SetExplicitVarSizeWithMarker_tuple1
          /\
          (x_RelationAsSet_SetExplicitVarSizeWithMarker_tuple2_tuple1[v__0] = 1
           /\
           x_RelationAsSet_SetExplicitVarSizeWithMarker_tuple2_tuple2[v__0] = 2),
    exists v__0 : int(1..12)
        . v__0 <= x_RelationAsSet_SetExplicitVarSizeWithMarker_tuple1
          /\
          (x_RelationAsSet_SetExplicitVarSizeWithMarker_tuple2_tuple1[v__0] = 1
           /\
           x_RelationAsSet_SetExplicitVarSizeWithMarker_tuple2_tuple2[v__0] = 3),
    exists v__0 : int(1..12)
        . v__0 <= x_RelationAsSet_SetExplicitVarSizeWithMarker_tuple1
          /\
          (x_RelationAsSet_SetExplicitVarSizeWithMarker_tuple2_tuple1[v__0] = 2
           /\
           x_RelationAsSet_SetExplicitVarSizeWithMarker_tuple2_tuple2[v__0] = 1),
    exists v__0 : int(1..12)
        . v__0 <= x_RelationAsSet_SetExplicitVarSizeWithMarker_tuple1
          /\
          (x_RelationAsSet_SetExplicitVarSizeWithMarker_tuple2_tuple1[v__0] = 2
           /\
           x_RelationAsSet_SetExplicitVarSizeWithMarker_tuple2_tuple2[v__0] = 2),
    exists v__0 : int(1..12)
        . v__0 <= x_RelationAsSet_SetExplicitVarSizeWithMarker_tuple1
          /\
          (x_RelationAsSet_SetExplicitVarSizeWithMarker_tuple2_tuple1[v__0] = 2
           /\
           x_RelationAsSet_SetExplicitVarSizeWithMarker_tuple2_tuple2[v__0] = 3),
    exists v__0 : int(1..12)
        . v__0 <= x_RelationAsSet_SetExplicitVarSizeWithMarker_tuple1
          /\
          (x_RelationAsSet_SetExplicitVarSizeWithMarker_tuple2_tuple1[v__0] = 3
           /\
           x_RelationAsSet_SetExplicitVarSizeWithMarker_tuple2_tuple2[v__0] = 1),
    exists v__0 : int(1..12)
        . v__0 <= x_RelationAsSet_SetExplicitVarSizeWithMarker_tuple1
          /\
          (x_RelationAsSet_SetExplicitVarSizeWithMarker_tuple2_tuple1[v__0] = 3
           /\
           x_RelationAsSet_SetExplicitVarSizeWithMarker_tuple2_tuple2[v__0] = 2),
    exists v__0 : int(1..12)
        . v__0 <= x_RelationAsSet_SetExplicitVarSizeWithMarker_tuple1
          /\
          (x_RelationAsSet_SetExplicitVarSizeWithMarker_tuple2_tuple1[v__0] = 3
           /\
           x_RelationAsSet_SetExplicitVarSizeWithMarker_tuple2_tuple2[v__0] = 3),
    exists v__0 : int(1..12)
        . v__0 <= x_RelationAsSet_SetExplicitVarSizeWithMarker_tuple1
          /\
          (x_RelationAsSet_SetExplicitVarSizeWithMarker_tuple2_tuple1[v__0] = 4
           /\
           x_RelationAsSet_SetExplicitVarSizeWithMarker_tuple2_tuple2[v__0] = 1),
    exists v__0 : int(1..12)
        . v__0 <= x_RelationAsSet_SetExplicitVarSizeWithMarker_tuple1
          /\
          (x_RelationAsSet_SetExplicitVarSizeWithMarker_tuple2_tuple1[v__0] = 4
           /\
           x_RelationAsSet_SetExplicitVarSizeWithMarker_tuple2_tuple2[v__0] = 2),
    exists v__0 : int(1..12)
        . v__0 <= x_RelationAsSet_SetExplicitVarSizeWithMarker_tuple1
          /\
          (x_RelationAsSet_SetExplicitVarSizeWithMarker_tuple2_tuple1[v__0] = 4
           /\
           x_RelationAsSet_SetExplicitVarSizeWithMarker_tuple2_tuple2[v__0] = 3),
    forAll v__0 : int(1..12)
        . v__0 + 1 <= x_RelationAsSet_SetExplicitVarSizeWithMarker_tuple1
          ->
          x_RelationAsSet_SetExplicitVarSizeWithMarker_tuple2_tuple1[v__0]
          <
          x_RelationAsSet_SetExplicitVarSizeWithMarker_tuple2_tuple1[v__0 + 1]
          \/
          x_RelationAsSet_SetExplicitVarSizeWithMarker_tuple2_tuple1[v__0]
          =
          x_RelationAsSet_SetExplicitVarSizeWithMarker_tuple2_tuple1[v__0 + 1]
          /\
          x_RelationAsSet_SetExplicitVarSizeWithMarker_tuple2_tuple2[v__0]
          <
          x_RelationAsSet_SetExplicitVarSizeWithMarker_tuple2_tuple2[v__0 + 1]
