etc/upTests/__issues/207-relation-dense/0002.eprime.solution
language ESSENCE' 1.0
$ minion Nodes: 807
$ minion TotalTime: 0.013669
$ Savile Row TotalTime: 0.639
letting x_RelationAsSet_SetExplicitVarSizeWithMarker_tuple1 be 12
letting x_RelationAsSet_SetExplicitVarSizeWithMarker_tuple2_tuple2 be [1, 2, 3, 1, 2, 3, 1, 2, 3, 1, 2, 3;int(1..12)]
letting x_RelationAsSet_SetExplicitVarSizeWithMarker_tuple2_tuple1 be [1, 1, 1, 2, 2, 2, 3, 3, 3, 4, 4, 4;int(1..12)]
